     Program PWSCF v.6.4.1 starts on  5Jan2024 at  1: 7:21

     R & G space division:  proc/nbgrp/npool/nimage =       3
     Waiting for input...
     Reading input from standard input

     Current dimensions of program PWSCF are:
     Max number of different atomic species (ntypx) = 10
     Max number of k-points (npk) =  40000
     Max angular momentum in pseudopotentials (lmaxx) =  3

     Subspace diagonalization in iterative solution of the eigenvalue problem:
     a serial algorithm will be used

     Message from routine setup:
     DEPRECATED: symmetry with ibrav=0, use correct ibrav instead

     bravais-lattice index     =            0
     lattice parameter (alat)  =       5.7724  a.u.
     unit-cell volume          =     136.0049 (a.u.)^3
     number of atoms/cell      =            1
     number of atomic types    =            1
     number of electrons       =         3.00
     number of Kohn-Sham states=            6
     kinetic-energy cutoff     =      40.0000  Ry
     charge density cutoff     =     450.0000  Ry
     convergence threshold     =      1.0E-06
     mixing beta               =       0.7000
     number of iterations used =            8  plain     mixing
     Exchange-correlation      = SLA PW PBX PBC ( 1  4  3  4 0 0)
     nstep                     =           50

     celldm(1)=   5.772402  celldm(2)=   0.000000  celldm(3)=   0.000000
     celldm(4)=   0.000000  celldm(5)=   0.000000  celldm(6)=   0.000000

     crystal axes: (cart. coord. in units of alat)
               a(1) = (   1.000000   0.000000   0.000000 )
               a(2) = (   0.500000   0.866025   0.000000 )
               a(3) = (   0.500000   0.288675   0.816497 )

     reciprocal axes: (cart. coord. in units 2 pi/alat)
               b(1) = (  1.000000 -0.577350 -0.408248 )
               b(2) = (  0.000000  1.154701 -0.408248 )
               b(3) = (  0.000000  0.000000  1.224745 )

     PseudoPot. # 1 for Li read from file:
     /home/jk7877/qe_potentials/Li.pbe-sl-kjpaw_psl.1.0.0.UPF
     MD5 check sum: 4449e4b2026dd225cbf03a6cd6c9364f
     Pseudo is Projector augmented-wave, Zval =  3.0
     Generated using "atomic" code by A. Dal Corso v.6.3
     Shape of augmentation charge: PSQ
     Using radial grid of 1017 points,  4 beta functions with:
                l(1) =   0
                l(2) =   0
                l(3) =   1
                l(4) =   1
     Q(r) pseudized with 0 coefficients

     atomic species   valence    mass     pseudopotential
        Li             3.00     6.94100     Li( 1.00)

     12 Sym. Ops., with inversion, found

                                    s                        frac. trans.

      isym =  1     identity

 cryst.   s( 1) = (     1          0          0      )
                  (     0          1          0      )
                  (     0          0          1      )

 cart.    s( 1) = (  1.0000000  0.0000000  0.0000000 )
                  (  0.0000000  1.0000000 -0.0000000 )
                  (  0.0000000  0.0000000  1.0000000 )

      isym =  2     180 deg rotation - cart. axis [1,0,0]

[...]

      isym =  3     120 deg rotation - cryst. axis [0,0,1]

[...]

      isym =  6     180 deg rotation - cryst. axis [1,1,0]

[...]

      isym =  7     inversion

[...]

      isym =  8     inv. 180 deg rotation - cart. axis [1,0,0]

[...]

      isym =  9     inv. 120 deg rotation - cryst. axis [0,0,1]

 cryst.   s( 9) = (     1         -1          0      )
                  (     1          0          0      )
                  (     1          0         -1      )

 cart.    s( 9) = (  0.5000000  0.8660254  0.0000000 )
                  ( -0.8660254  0.5000000  0.0000000 )
                  (  0.0000000  0.0000000 -1.0000000 )

[...]

 cryst.   s(10) = (     0          1          0      )
                  (    -1          1          0      )
                  (     0          1         -1      )

 cart.    s(10) = (  0.5000000 -0.8660254  0.0000000 )
                  (  0.8660254  0.5000000  0.0000000 )
                  (  0.0000000  0.0000000 -1.0000000 )

[...]

      isym = 12     inv. 180 deg rotation - cryst. axis [1,1,0]

 cryst.   s(12) = (     1         -1          0      )
                  (     0         -1          0      )
                  (     0         -1          1      )

 cart.    s(12) = (  0.5000000 -0.8660254  0.0000000 )
                  ( -0.8660254 -0.5000000 -0.0000000 )
                  (  0.0000000  0.0000000  1.0000000 )

   Cartesian axes

     site n.     atom                  positions (alat units)
         1           Li  tau(   1) = (   0.0000000   0.0000000   0.0000000  )

   Crystallographic axes

     site n.     atom                  positions (cryst. coord.)
         1           Li  tau(   1) = (  0.0000000  0.0000000  0.0000000  )

     number of k points=  1088  Marzari-Vanderbilt smearing, width (Ry)=  0.0200
                       cart. coord. in units 2pi/alat
        k(    1) = (   0.0312500   0.0180422   0.0127578), wk =   0.0009766
        k(    2) = (   0.0312500   0.0180422   0.0893043), wk =   0.0009766
        k(    3) = (   0.0312500   0.0180422   0.1658509), wk =   0.0009766
        k(    4) = (   0.0312500   0.0180422   0.2423974), wk =   0.0009766
        k(    5) = (   0.0312500   0.0180422   0.3189440), wk =   0.0009766
        k(    6) = (   0.0312500   0.0180422   0.3954905), wk =   0.0009766
        k(    7) = (   0.0312500   0.0180422   0.4720371), wk =   0.0009766
        k(    8) = (   0.0312500   0.0180422   0.5485836), wk =   0.0009766
        k(    9) = (   0.0312500   0.0180422  -0.5996147), wk =   0.0009766
        k(   10) = (   0.0312500   0.0180422  -0.5230681), wk =   0.0009766
        k(   11) = (   0.0312500   0.0180422  -0.4465216), wk =   0.0009766
        k(   12) = (   0.0312500   0.0180422  -0.3699750), wk =   0.0009766
        k(   13) = (   0.0312500   0.0180422  -0.2934285), wk =   0.0009766
        k(   14) = (   0.0312500   0.0180422  -0.2168819), wk =   0.0009766
        k(   15) = (   0.0312500   0.0180422  -0.1403353), wk =   0.0009766
        k(   16) = (   0.0312500   0.0180422  -0.0637888), wk =   0.0009766
        k(   17) = (   0.0312500   0.0902110  -0.0127578), wk =   0.0019531
        k(   18) = (   0.0312500   0.0902110   0.0637888), wk =   0.0019531
        k(   19) = (   0.0312500   0.0902110   0.1403353), wk =   0.0019531
        k(   20) = (   0.0312500   0.0902110   0.2168819), wk =   0.0019531
        k(   21) = (   0.0312500   0.0902110   0.2934285), wk =   0.0019531
        k(   22) = (   0.0312500   0.0902110   0.3699750), wk =   0.0019531
        k(   23) = (   0.0312500   0.0902110   0.4465216), wk =   0.0019531
        k(   24) = (   0.0312500   0.0902110   0.5230681), wk =   0.0019531
        k(   25) = (   0.0312500   0.0902110  -0.6251302), wk =   0.0019531
        k(   26) = (   0.0312500   0.0902110  -0.5485836), wk =   0.0019531
        k(   27) = (   0.0312500   0.0902110  -0.4720371), wk =   0.0019531
        k(   28) = (   0.0312500   0.0902110  -0.3954905), wk =   0.0019531
        k(   29) = (   0.0312500   0.0902110  -0.3189440), wk =   0.0019531
        k(   30) = (   0.0312500   0.0902110  -0.2423974), wk =   0.0019531
        k(   31) = (   0.0312500   0.0902110  -0.1658509), wk =   0.0019531
        k(   32) = (   0.0312500   0.0902110  -0.0893043), wk =   0.0019531
        k(   33) = (   0.0312500   0.1623798  -0.0382733), wk =   0.0019531
        k(   34) = (   0.0312500   0.1623798   0.0382733), wk =   0.0019531
        k(   35) = (   0.0312500   0.1623798   0.1148198), wk =   0.0019531
        k(   36) = (   0.0312500   0.1623798   0.1913664), wk =   0.0019531
        k(   37) = (   0.0312500   0.1623798   0.2679129), wk =   0.0019531
        k(   38) = (   0.0312500   0.1623798   0.3444595), wk =   0.0019531
        k(   39) = (   0.0312500   0.1623798   0.4210060), wk =   0.0019531
        k(   40) = (   0.0312500   0.1623798   0.4975526), wk =   0.0019531
        k(   41) = (   0.0312500   0.1623798  -0.6506457), wk =   0.0019531
        k(   42) = (   0.0312500   0.1623798  -0.5740992), wk =   0.0019531
        k(   43) = (   0.0312500   0.1623798  -0.4975526), wk =   0.0019531
        k(   44) = (   0.0312500   0.1623798  -0.4210060), wk =   0.0019531
        k(   45) = (   0.0312500   0.1623798  -0.3444595), wk =   0.0019531
        k(   46) = (   0.0312500   0.1623798  -0.2679129), wk =   0.0019531
        k(   47) = (   0.0312500   0.1623798  -0.1913664), wk =   0.0019531
        k(   48) = (   0.0312500   0.1623798  -0.1148198), wk =   0.0019531
        k(   49) = (   0.0312500   0.2345485  -0.0637888), wk =   0.0019531
        k(   50) = (   0.0312500   0.2345485   0.0127578), wk =   0.0019531
        k(   51) = (   0.0312500   0.2345485   0.0893043), wk =   0.0019531
        k(   52) = (   0.0312500   0.2345485   0.1658509), wk =   0.0019531
        k(   53) = (   0.0312500   0.2345485   0.2423974), wk =   0.0019531
        k(   54) = (   0.0312500   0.2345485   0.3189440), wk =   0.0019531
        k(   55) = (   0.0312500   0.2345485   0.3954905), wk =   0.0019531
        k(   56) = (   0.0312500   0.2345485   0.4720371), wk =   0.0019531
        k(   57) = (   0.0312500   0.2345485  -0.6761612), wk =   0.0019531
        k(   58) = (   0.0312500   0.2345485  -0.5996147), wk =   0.0019531
        k(   59) = (   0.0312500   0.2345485  -0.5230681), wk =   0.0019531
        k(   60) = (   0.0312500   0.2345485  -0.4465216), wk =   0.0019531
[...]
        k( 1074) = (   0.4687500   0.2706329  -0.8802854), wk =   0.0009766
        k( 1075) = (   0.4687500   0.2706329  -0.8037388), wk =   0.0009766
        k( 1076) = (   0.4687500   0.2706329  -0.7271923), wk =   0.0009766
        k( 1077) = (   0.4687500   0.2706329  -0.6506457), wk =   0.0009766
        k( 1078) = (   0.4687500   0.2706329  -0.5740992), wk =   0.0009766
        k( 1079) = (   0.4687500   0.2706329  -0.4975526), wk =   0.0009766
        k( 1080) = (   0.4687500   0.2706329  -0.4210060), wk =   0.0009766
        k( 1081) = (   0.4687500  -0.8118988   0.0382733), wk =   0.0019531
        k( 1082) = (   0.4687500  -0.8118988   0.1148198), wk =   0.0019531
        k( 1083) = (   0.4687500  -0.8118988   0.1913664), wk =   0.0019531
        k( 1084) = (   0.4687500  -0.8118988   0.2679129), wk =   0.0019531
        k( 1085) = (   0.4687500  -0.8118988   0.3444595), wk =   0.0019531
        k( 1086) = (   0.4687500  -0.8118988   0.4210060), wk =   0.0019531
        k( 1087) = (   0.4687500  -0.8118988   0.4975526), wk =   0.0019531
        k( 1088) = (   0.4687500  -0.8118988   0.5740992), wk =   0.0019531

                       cryst. coord.
        k(    1) = (   0.0312500   0.0312500   0.0312500), wk =   0.0009766
        k(    2) = (   0.0312500   0.0312500   0.0937500), wk =   0.0009766
        k(    3) = (   0.0312500   0.0312500   0.1562500), wk =   0.0009766
        k(    4) = (   0.0312500   0.0312500   0.2187500), wk =   0.0009766
        k(    5) = (   0.0312500   0.0312500   0.2812500), wk =   0.0009766
        k(    6) = (   0.0312500   0.0312500   0.3437500), wk =   0.0009766
        k(    7) = (   0.0312500   0.0312500   0.4062500), wk =   0.0009766
        k(    8) = (   0.0312500   0.0312500   0.4687500), wk =   0.0009766
        k(    9) = (   0.0312500   0.0312500  -0.4687500), wk =   0.0009766
        k(   10) = (   0.0312500   0.0312500  -0.4062500), wk =   0.0009766
        k(   11) = (   0.0312500   0.0312500  -0.3437500), wk =   0.0009766
        k(   12) = (   0.0312500   0.0312500  -0.2812500), wk =   0.0009766
        k(   13) = (   0.0312500   0.0312500  -0.2187500), wk =   0.0009766
        k(   14) = (   0.0312500   0.0312500  -0.1562500), wk =   0.0009766
        k(   15) = (   0.0312500   0.0312500  -0.0937500), wk =   0.0009766
        k(   16) = (   0.0312500   0.0312500  -0.0312500), wk =   0.0009766
        k(   17) = (   0.0312500   0.0937500   0.0312500), wk =   0.0019531
        k(   18) = (   0.0312500   0.0937500   0.0937500), wk =   0.0019531
        k(   19) = (   0.0312500   0.0937500   0.1562500), wk =   0.0019531
        k(   20) = (   0.0312500   0.0937500   0.2187500), wk =   0.0019531
        k(   21) = (   0.0312500   0.0937500   0.2812500), wk =   0.0019531
        k(   22) = (   0.0312500   0.0937500   0.3437500), wk =   0.0019531
        k(   23) = (   0.0312500   0.0937500   0.4062500), wk =   0.0019531
        k(   24) = (   0.0312500   0.0937500   0.4687500), wk =   0.0019531
        k(   25) = (   0.0312500   0.0937500  -0.4687500), wk =   0.0019531
        k(   26) = (   0.0312500   0.0937500  -0.4062500), wk =   0.0019531
        k(   27) = (   0.0312500   0.0937500  -0.3437500), wk =   0.0019531
        k(   28) = (   0.0312500   0.0937500  -0.2812500), wk =   0.0019531
        k(   29) = (   0.0312500   0.0937500  -0.2187500), wk =   0.0019531
        k(   30) = (   0.0312500   0.0937500  -0.1562500), wk =   0.0019531
        k(   31) = (   0.0312500   0.0937500  -0.0937500), wk =   0.0019531
        k(   32) = (   0.0312500   0.0937500  -0.0312500), wk =   0.0019531
        k(   33) = (   0.0312500   0.1562500   0.0312500), wk =   0.0019531
        k(   34) = (   0.0312500   0.1562500   0.0937500), wk =   0.0019531
        k(   35) = (   0.0312500   0.1562500   0.1562500), wk =   0.0019531
        k(   36) = (   0.0312500   0.1562500   0.2187500), wk =   0.0019531
        k(   37) = (   0.0312500   0.1562500   0.2812500), wk =   0.0019531
        k(   38) = (   0.0312500   0.1562500   0.3437500), wk =   0.0019531
        k(   39) = (   0.0312500   0.1562500   0.4062500), wk =   0.0019531
        k(   40) = (   0.0312500   0.1562500   0.4687500), wk =   0.0019531
        k(   41) = (   0.0312500   0.1562500  -0.4687500), wk =   0.0019531
        k(   42) = (   0.0312500   0.1562500  -0.4062500), wk =   0.0019531
        k(   43) = (   0.0312500   0.1562500  -0.3437500), wk =   0.0019531
        k(   44) = (   0.0312500   0.1562500  -0.2812500), wk =   0.0019531
        k(   45) = (   0.0312500   0.1562500  -0.2187500), wk =   0.0019531
        k(   46) = (   0.0312500   0.1562500  -0.1562500), wk =   0.0019531
        k(   47) = (   0.0312500   0.1562500  -0.0937500), wk =   0.0019531
        k(   48) = (   0.0312500   0.1562500  -0.0312500), wk =   0.0019531
        k(   49) = (   0.0312500   0.2187500   0.0312500), wk =   0.0019531
        k(   50) = (   0.0312500   0.2187500   0.0937500), wk =   0.0019531
        k(   51) = (   0.0312500   0.2187500   0.1562500), wk =   0.0019531
        k(   52) = (   0.0312500   0.2187500   0.2187500), wk =   0.0019531
        k(   53) = (   0.0312500   0.2187500   0.2812500), wk =   0.0019531
        k(   54) = (   0.0312500   0.2187500   0.3437500), wk =   0.0019531
        k(   55) = (   0.0312500   0.2187500   0.4062500), wk =   0.0019531
        k(   56) = (   0.0312500   0.2187500   0.4687500), wk =   0.0019531
        k(   57) = (   0.0312500   0.2187500  -0.4687500), wk =   0.0019531
        k(   58) = (   0.0312500   0.2187500  -0.4062500), wk =   0.0019531
        k(   59) = (   0.0312500   0.2187500  -0.3437500), wk =   0.0019531
        k(   60) = (   0.0312500   0.2187500  -0.2812500), wk =   0.0019531
[...]
        k( 1074) = (   0.4687500   0.4687500  -0.4062500), wk =   0.0009766
        k( 1075) = (   0.4687500   0.4687500  -0.3437500), wk =   0.0009766
        k( 1076) = (   0.4687500   0.4687500  -0.2812500), wk =   0.0009766
        k( 1077) = (   0.4687500   0.4687500  -0.2187500), wk =   0.0009766
        k( 1078) = (   0.4687500   0.4687500  -0.1562500), wk =   0.0009766
        k( 1079) = (   0.4687500   0.4687500  -0.0937500), wk =   0.0009766
        k( 1080) = (   0.4687500   0.4687500  -0.0312500), wk =   0.0009766
        k( 1081) = (   0.4687500  -0.4687500   0.0312500), wk =   0.0019531
        k( 1082) = (   0.4687500  -0.4687500   0.0937500), wk =   0.0019531
        k( 1083) = (   0.4687500  -0.4687500   0.1562500), wk =   0.0019531
        k( 1084) = (   0.4687500  -0.4687500   0.2187500), wk =   0.0019531
        k( 1085) = (   0.4687500  -0.4687500   0.2812500), wk =   0.0019531
        k( 1086) = (   0.4687500  -0.4687500   0.3437500), wk =   0.0019531
        k( 1087) = (   0.4687500  -0.4687500   0.4062500), wk =   0.0019531
        k( 1088) = (   0.4687500  -0.4687500   0.4687500), wk =   0.0019531

     Initial potential from superposition of free atoms

     starting charge    2.99539, renormalised to    3.00000
     Starting wfcs are    5 randomized atomic wfcs +    1 random wfcs
     Checking if some PAW data can be deallocated...

     Self-consistent Calculation

     iteration #  1     ecut=    40.00 Ry     beta= 0.70
     Davidson diagonalization with overlap
     ethr =  1.00E-02,  avg # of iterations =  5.2

     Threshold (ethr) on eigenvalues was too large:
     Diagonalizing with lowered threshold

     Davidson diagonalization with overlap
     ethr =  1.23E-05,  avg # of iterations =  3.2

     total energy              =     -15.04299533 Ry
     Harris-Foulkes estimate   =     -15.04313846 Ry
     estimated scf accuracy    <       0.00036223 Ry

[...]

     total energy              =     -15.04300495 Ry
     Harris-Foulkes estimate   =     -15.04300995 Ry
     estimated scf accuracy    <       0.00002222 Ry

     iteration #  3     ecut=    40.00 Ry     beta= 0.70
     Davidson diagonalization with overlap
     ethr =  7.41E-07,  avg # of iterations =  1.5

     End of self-consistent calculation

          k = 0.0312 0.0180 0.0128 (   567 PWs)   bands (ev):

   -45.5925  -2.5995  15.1377  15.3011  15.3011  18.8885

     occupation numbers
     1.0000   1.0000   0.0000   0.0000   0.0000   0.0000

[...]

          k = 0.4688-0.8119 0.5741 (   575 PWs)   bands (ev):

   -45.5741   0.9861   3.9415  13.1122  13.3392  16.4183

     occupation numbers
     1.0000   0.2872   0.0000   0.0000   0.0000   0.0000

     the Fermi energy is     0.9375 ev

!    total energy              =     -15.04300770 Ry
     Harris-Foulkes estimate   =     -15.04300776 Ry
     estimated scf accuracy    <       0.00000025 Ry

     total all-electron energy =       -15.043016 Ry

     The total energy is the sum of the following terms:

     one-electron contribution =     -10.55748916 Ry
     hartree contribution      =       4.07633275 Ry
     xc contribution           =      -3.59536713 Ry
     ewald contribution        =      -5.05472145 Ry
     one-center paw contrib.   =       0.08833103 Ry
      -> PAW hartree energy AE =       7.50986712 Ry
      -> PAW hartree energy PS =      -7.28699793 Ry
      -> PAW xc energy AE      =      -3.50099771 Ry
      -> PAW xc energy PS      =       3.36645955 Ry
      -> total E_H with PAW    =       4.29920194 Ry
      -> total E_XC with PAW   =      -3.72990529 Ry
     smearing contrib. (-TS)   =      -0.00009373 Ry

     convergence has been achieved in   3 iterations

     Forces acting on atoms (cartesian axes, Ry/au):

     atom    1 type  1   force =     0.00000000    0.00000000    0.00000000
     The non-local contrib.  to forces
     atom    1 type  1   force =     0.00000000   -0.00000000   -0.00000000
     The ionic contribution  to forces
     atom    1 type  1   force =    -0.00000000   -0.00000000   -0.00000000
     The local contribution  to forces
     atom    1 type  1   force =     0.00000000    0.00000000    0.00000000
     The core correction contribution to forces
     atom    1 type  1   force =     0.00000000    0.00000000    0.00000000
     The Hubbard contrib.    to forces
     atom    1 type  1   force =     0.00000000    0.00000000    0.00000000
     The SCF correction term to forces
     atom    1 type  1   force =    -0.00000000    0.00000000   -0.00000000

     Total force =     0.000000     Total SCF correction =     0.000000

     Computing stress (Cartesian axis) and pressure

          total   stress  (Ry/bohr**3)                   (kbar)     P=   -9.69
  -0.00006649   0.00000000  -0.00000000         -9.78      0.00     -0.00
   0.00000000  -0.00006649   0.00000000          0.00     -9.78      0.00
   0.00000000  -0.00000000  -0.00006462          0.00     -0.00     -9.51

     kinetic stress (kbar)   2627.00      0.00      0.00
                                0.00   2627.00     -0.00
                               -0.00     -0.00   2627.36

     local   stress (kbar)  -1128.65      0.00      0.00
                                0.00  -1128.65      0.00
                                0.00      0.00  -1128.90

     nonloc. stress (kbar)     94.63     -0.00      0.00
                               -0.00     94.63      0.00
                                0.00      0.00     94.65

     hartree stress (kbar)   1469.63      0.00     -0.00
                                0.00   1469.63      0.00
                               -0.00      0.00   1469.77

     exc-cor stress (kbar)  -1249.97     -0.00     -0.00
                               -0.00  -1249.97      0.00
                               -0.00      0.00  -1249.96

     corecor stress (kbar)      0.00      0.00      0.00
                                0.00      0.00      0.00
                                0.00      0.00      0.00

     ewald   stress (kbar)  -1822.42      0.00      0.00
                                0.00  -1822.42      0.00
                                0.00      0.00  -1822.42

     hubbard stress (kbar)      0.00      0.00      0.00
                                0.00      0.00      0.00
                                0.00      0.00      0.00

     london  stress (kbar)      0.00      0.00      0.00
                                0.00      0.00      0.00
                                0.00      0.00      0.00

     DFT-D3  stress (kbar)      0.00      0.00      0.00
                                0.00      0.00      0.00
                                0.00      0.00      0.00

     XDM     stress (kbar)      0.00      0.00      0.00
                                0.00      0.00      0.00
                                0.00      0.00      0.00

     dft-nl  stress (kbar)      0.00      0.00      0.00
                                0.00      0.00      0.00
                                0.00      0.00      0.00

     TS-vdW  stress (kbar)      0.00      0.00      0.00
                                0.00      0.00      0.00
                                0.00      0.00      0.00

     BFGS Geometry Optimization

     bfgs converged in   1 scf cycles and   0 bfgs steps
     (criteria: energy <  1.0E-04 Ry, force <  1.0E-03 Ry/Bohr)

     End of BFGS Geometry Optimization

     Final energy   =     -15.0430076983 Ry
Begin final coordinates

ATOMIC_POSITIONS (angstrom)
Li       0.000000000   0.000000000   0.000000000
End final coordinates

     Writing output data file Li_R.in.save/

     General routines

     Parallel routines

     PAW routines

   This run was terminated on:   1: 7:42   5Jan2024

   JOB DONE.